PARAMETER_FILE = ./image_ll.par
Reading PROBLEM_FILE: "image_ll.tsp" ... done
ASCENT_CANDIDATES = 50
BACKBONE_TRIALS = 0
BACKTRACKING = NO
# CANDIDATE_FILE =
CANDIDATE_SET_TYPE = ALPHA
# EDGE_FILE =
EXCESS = 6.0562e-05
EXTRA_CANDIDATES = 0 
EXTRA_CANDIDATE_SET_TYPE = QUADRANT
GAIN23 = YES
GAIN_CRITERION = YES
INITIAL_PERIOD = 1000
INITIAL_STEP_SIZE = 1
INITIAL_TOUR_ALGORITHM = WALK
# INITIAL_TOUR_FILE = 
INITIAL_TOUR_FRACTION = 1.000
# INPUT_TOUR_FILE = 
KICK_TYPE = 0
KICKS = 1
# MAX_BREADTH =
MAX_CANDIDATES = 0 
MAX_SWAPS = 16512
MAX_TRIALS = 1
# MERGE_TOUR_FILE =
MOVE_TYPE = 5
NONSEQUENTIAL_MOVE_TYPE = 9
# OPTIMUM =
# OUTPUT_TOUR_FILE = 
PATCHING_A = 2 
PATCHING_C = 3 
# PI_FILE = 
POPMUSIC_INITIAL_TOUR = NO
POPMUSIC_MAX_NEIGHBORS = 5
POPMUSIC_SAMPLE_SIZE = 10
POPMUSIC_SOLUTIONS = 50
POPMUSIC_TRIALS = 1
# POPULATION_SIZE = 0
PRECISION = 100
PROBLEM_FILE = image_ll.tsp
RECOMBINATION = IPT
RESTRICTED_SEARCH = YES
RUNS = 5
SEED = 1
STOP_AT_OPTIMUM = YES
SUBGRADIENT = YES
# SUBPROBLEM_SIZE =
# SUBPROBLEM_TOUR_FILE = 
SUBSEQUENT_MOVE_TYPE = 5
SUBSEQUENT_PATCHING = YES
# TIME_LIMIT =
TOUR_FILE = tour_ll
TRACE_LEVEL = 1

Lower bound = 18642140.1, Ascent time = 25.86 sec.
Cand.min = 5, Cand.avg = 13.8, Cand.max = 14
Preprocessing time = 25.90 sec.
* 1: Cost = 18655984, Time = 134.99 sec. 
Writing TOUR_FILE: "tour_ll" ... done
Run 1: Cost = 18655984, Time = 134.99 sec. 

* 1: Cost = 18655506, Time = 176.67 sec. 
Writing TOUR_FILE: "tour_ll" ... done
Run 2: Cost = 18655506, Time = 176.69 sec. 

* 1: Cost = 18656205, Time = 270.16 sec. 
Run 3: Cost = 18656205, Time = 270.17 sec. 

* 1: Cost = 18655520, Time = 296.13 sec. 
Writing TOUR_FILE: "tour_ll" ... done
Run 4: Cost = 18655474, Time = 296.14 sec. 

* 1: Cost = 18656453, Time = 86.02 sec. 
Run 5: Cost = 18656453, Time = 86.02 sec. 

Successes/Runs = 0/5
Cost.min = 18655474, Cost.avg = 18655924.40, Cost.max = 18656453
Gap.min = 0.0000%, Gap.avg = 0.0024%, Gap.max = 0.0052%
Trials.min = 1, Trials.avg = 1.0, Trials.max = 1
Time.min = 86.02 sec., Time.avg = 192.80 sec., Time.max = 296.14 sec.
Time.total = 990.01 sec.
